
List of user-set options:

                                    Name   Value                used
                           compl_inf_tol = 1                     yes
                         constr_viol_tol = 1                     yes
                            dual_inf_tol = 1000                  yes
                           linear_solver = ma97                  yes
                              ma86_small = 1e-30                  no
                                  ma86_u = 0.0001                 no
                              ma97_order = best                  yes
                              ma97_small = 1e-30                 yes
                            ma97_switch1 = at_start              yes
                            ma97_switch2 = od_hd_reuse           yes
                                  ma97_u = 1e-06                 yes
                               ma97_umax = 0.5                   yes
                                max_iter = 1000                  yes
                    max_refinement_steps = 20                    yes
                    min_refinement_steps = 5                     yes
                                 mu_init = 1e-06                 yes
           mu_superlinear_decrease_power = 1.25                  yes
                   nlp_scaling_min_value = 1e-08                 yes
                        option_file_name = Preset_Case_756_pf.opt  yes
                             output_file = ./tmp/Preset_Case_756_pf.output  yes
                      print_user_options = yes                   yes
        required_infeasibility_reduction = 1                      no
                                     tol = 1e-08                 yes
                   warm_start_bound_frac = 1e-20                 yes
                   warm_start_bound_push = 1e-20                 yes
                   warm_start_init_point = yes                   yes
              warm_start_mult_bound_push = 1e-20                 yes
                warm_start_mult_init_max = 1e+40                 yes
             warm_start_slack_bound_frac = 1e-20                 yes
             warm_start_slack_bound_push = 1e-20                 yes

******************************************************************************
This program contains Ipopt, a library for large-scale nonlinear optimization.
 Ipopt is released as open source code under the Eclipse Public License (EPL).
         For more information visit http://projects.coin-or.org/Ipopt
******************************************************************************

This is Ipopt version 3.12.10, running with linear solver ma97.

Number of nonzeros in equality constraint Jacobian...:   123442
Number of nonzeros in inequality constraint Jacobian.:      213
Number of nonzeros in Lagrangian Hessian.............:    49069

Total number of variables............................:    31591
                     variables with only lower bounds:    12912
                variables with lower and upper bounds:    15130
                     variables with only upper bounds:        0
Total number of equality constraints.................:    31483
Total number of inequality constraints...............:       25
        inequality constraints with only lower bounds:        4
   inequality constraints with lower and upper bounds:        0
        inequality constraints with only upper bounds:       21

iter    objective    inf_pr   inf_du lg(mu)  ||d||  lg(rg) alpha_du alpha_pr  ls
   0 -5.1768967e+00 4.07e-03 1.02e+00  -6.0 0.00e+00    -  0.00e+00 0.00e+00   0
   1 -5.1765110e+00 7.11e-03 1.02e+00  -6.0 1.81e+06    -  4.65e-05 1.50e-05h  6
   2 -5.1787522e+00 9.35e-03 2.21e+01  -6.0 2.07e+04    -  9.86e-02 1.82e-03h  1
   3 -5.1786952e+00 9.33e-03 2.20e+01  -6.0 2.50e+02  -4.0 1.35e-03 1.52e-03h  1
   4 -5.3205003e+00 2.21e+01 5.63e+03  -6.0 1.92e+04    -  5.47e-02 1.20e-01f  1
   5 -5.3153287e+00 1.36e+01 2.87e+03  -6.0 5.81e+00  -4.5 5.42e-01 3.82e-01h  1
   6 -5.3938609e+00 1.01e+01 2.16e+03  -6.0 8.40e+01  -5.0 3.08e-02 2.59e-01h  1
   7 -5.4528056e+00 3.07e+00 7.03e+02  -6.0 2.72e+01  -5.4 1.99e-01 6.96e-01h  1
   8 -5.4569277e+00 2.88e+00 6.64e+02  -6.0 6.94e+01  -5.9 2.31e-01 6.30e-02h  1
   9 -5.4743320e+00 2.48e+00 5.72e+02  -6.0 1.28e+02  -6.4 5.88e-02 1.37e-01h  1
iter    objective    inf_pr   inf_du lg(mu)  ||d||  lg(rg) alpha_du alpha_pr  ls
  10 -5.5460257e+00 1.57e+00 3.53e+02  -6.0 2.95e+02  -6.9 1.44e-01 3.67e-01h  1
  11 -5.5754419e+00 1.31e+00 3.02e+02  -6.0 5.57e+02  -7.3 6.25e-01 1.64e-01h  1
  12 -5.6376983e+00 1.01e+00 2.19e+02  -6.0 1.23e+03  -7.8 9.58e-01 2.70e-01h  1
  13 -5.6458704e+00 4.54e+00 2.09e+02  -6.0 1.13e+04    -  1.50e-01 4.25e-02h  1
  14 -5.6821361e+00 4.22e+00 2.48e+02  -6.0 2.55e+03    -  2.81e-01 1.72e-01h  1
  15 -5.6922268e+00 4.03e+00 2.43e+02  -6.0 2.20e+03    -  1.05e-01 4.86e-02h  1
  16 -5.6942966e+00 3.90e+00 2.36e+02  -6.0 5.47e+02  -7.4 1.23e-01 3.00e-02h  1
  17 -5.6978887e+00 3.74e+00 2.27e+02  -6.0 9.84e+02  -7.9 7.74e-02 4.13e-02h  1
  18 -5.7034929e+00 3.37e+00 4.60e+02  -6.0 5.45e+02  -7.4 2.32e-01 9.96e-02h  1
  19 -5.7197631e+00 1.26e+00 2.72e+03  -6.0 3.54e+02  -7.0 1.03e-01 6.25e-01h  1
iter    objective    inf_pr   inf_du lg(mu)  ||d||  lg(rg) alpha_du alpha_pr  ls
  20 -5.7199976e+00 1.08e+00 2.40e+03  -6.0 9.21e+01  -6.6 3.68e-01 1.45e-01h  1
  21 -5.7316462e+00 4.60e-01 5.44e+03  -6.0 2.50e+02  -7.1 2.94e-01 8.06e-01h  1
  22 -5.7330895e+00 4.01e-01 7.48e+03  -6.0 9.32e+01  -6.6 3.45e-01 1.30e-01h  1
  23 -5.7526166e+00 4.72e+00 9.45e+03  -6.0 1.04e+03  -7.1 1.10e-01 3.42e-01h  1
  24 -5.7665898e+00 4.12e+00 4.03e+02  -6.0 1.36e+03  -7.6 1.50e-01 1.12e-01h  1
  25 -5.7861434e+00 3.80e+00 1.33e+04  -6.0 4.17e+03    -  9.90e-02 6.77e-02h  1
  26 -5.7961777e+00 3.59e+00 5.91e+04  -6.0 3.26e+03    -  1.43e-01 4.70e-02h  1
  27 -5.8140484e+00 6.71e+00 6.17e+04  -6.0 2.77e+03    -  2.36e-01 1.96e-01h  1
  28 -5.8310408e+00 5.12e+00 2.06e+05  -6.0 6.71e+02  -8.1 5.86e-01 2.78e-01h  1
  29 -5.8509186e+00 3.33e+00 3.99e+05  -6.0 6.02e+02  -7.6 7.54e-01 3.50e-01h  1
iter    objective    inf_pr   inf_du lg(mu)  ||d||  lg(rg) alpha_du alpha_pr  ls
  30 -5.8770755e+00 2.87e+01 2.49e+05  -6.0 5.27e+03    -  2.99e-03 2.37e-01h  1
  31 -5.8936879e+00 2.65e+01 3.53e+05  -6.0 4.19e+03    -  2.33e-01 1.61e-01h  1
  32 -5.9037828e+00 2.47e+01 1.68e+04  -6.0 4.78e+03    -  4.96e-02 6.87e-02h  1
  33r-5.9037828e+00 2.47e+01 1.00e+03   1.2 0.00e+00    -  0.00e+00 3.21e-08R  2
  34r-5.9184642e+00 2.47e+01 1.00e+03   1.2 7.28e+04    -  2.16e-07 1.52e-07f  1
  35 -5.9182522e+00 2.44e+01 3.11e+03  -6.0 1.17e+02    -  3.15e-06 9.78e-03h  1
  36 -5.9171346e+00 2.30e+01 2.93e+03  -6.0 1.10e+02    -  6.56e-02 5.68e-02h  1
  37 -5.9144256e+00 1.97e+01 2.51e+03  -6.0 4.96e+01    -  6.60e-02 1.44e-01h  1
  38 -5.9091766e+00 1.33e+01 1.69e+03  -6.0 1.27e+01    -  1.28e-01 3.26e-01h  1
  39 -5.9045903e+00 7.35e+00 9.36e+02  -6.0 8.36e+00    -  1.93e-01 4.47e-01h  1
iter    objective    inf_pr   inf_du lg(mu)  ||d||  lg(rg) alpha_du alpha_pr  ls
  40 -5.9010998e+00 1.98e+00 2.52e+02  -6.0 7.07e+00    -  4.46e-01 7.30e-01h  1
  41 -5.9034335e+00 2.05e-01 2.60e+01  -6.0 4.10e+00    -  8.46e-01 8.97e-01h  1
  42 -5.9053773e+00 1.87e-01 2.38e+01  -6.0 4.87e+00    -  1.40e-01 8.61e-02h  1
  43 -5.9149567e+00 1.12e-01 1.42e+01  -6.0 5.25e+00    -  3.37e-01 4.03e-01h  1
  44 -5.9165545e+00 6.97e-02 4.52e+02  -6.0 2.16e+00    -  7.34e-01 3.76e-01h  1
  45 -5.9177265e+00 6.24e-02 1.06e+03  -6.0 8.44e+00    -  7.43e-01 1.04e-01h  1
  46 -5.9257279e+00 2.15e-02 4.23e+02  -6.0 3.76e+01    -  9.37e-01 7.31e-01h  1
  47 -5.9460663e+00 1.40e+00 4.55e+01  -6.0 4.10e+02    -  4.83e-01 5.43e-01h  1
  48 -5.9540112e+00 9.78e-01 6.58e+02  -6.0 4.19e+02    -  8.06e-01 6.60e-01h  1
  49 -5.9591613e+00 1.03e+00 2.55e+03  -6.0 1.07e+03    -  2.69e-01 8.74e-02h  1
iter    objective    inf_pr   inf_du lg(mu)  ||d||  lg(rg) alpha_du alpha_pr  ls
  50 -5.9740968e+00 4.33e+00 2.21e+03  -6.0 1.08e+03    -  5.71e-02 4.53e-01h  1
  51 -5.9800775e+00 1.84e+00 1.09e+03  -6.0 3.13e+02  -8.1 7.49e-01 6.70e-01h  1
  52 -5.9893691e+00 3.61e+00 1.84e+04  -6.0 4.86e+02  -8.6 6.61e-01 1.00e+00h  1
  53 -5.9918790e+00 3.07e+00 5.62e+04  -6.0 6.16e+02    -  5.31e-01 2.32e-01h  1
  54 -6.0033778e+00 4.28e+00 4.49e+04  -6.0 5.37e+02    -  8.41e-01 1.00e+00h  1
  55 -6.0081321e+00 3.40e+00 4.97e+04  -6.0 2.63e+02    -  2.70e-01 2.18e-01h  1
  56 -6.0125650e+00 2.92e+00 1.35e+06  -6.0 3.64e+02    -  5.62e-01 1.49e-01h  1
  57r-6.0125650e+00 2.92e+00 1.00e+03   0.3 0.00e+00    -  0.00e+00 8.52e-08R  2
  58r-6.0173344e+00 2.92e+00 1.00e+03   0.3 1.44e+04    -  3.15e-06 1.06e-06f  1
  59 -6.0169691e+00 2.63e+00 4.51e+05  -6.0 1.41e+01    -  3.77e-01 9.81e-02h  1
iter    objective    inf_pr   inf_du lg(mu)  ||d||  lg(rg) alpha_du alpha_pr  ls
  60 -6.0159166e+00 1.58e+00 2.15e+06  -6.0 1.36e+01    -  9.81e-02 4.01e-01h  1
  61 -6.0151712e+00 1.11e-02 1.31e+04  -6.0 8.61e+00    -  7.44e-01 9.94e-01h  1
  62 -6.0214646e+00 3.21e-03 4.84e+01  -6.0 1.49e+00    -  6.59e-01 1.00e+00f  1
  63 -6.0297836e+00 8.15e-03 1.94e+01  -6.0 2.35e+00    -  6.27e-01 9.55e-01h  1
  64 -6.0244655e+00 3.22e-03 4.56e+02  -6.0 1.45e+00    -  6.31e-01 1.00e+00h  1
  65 -6.0309198e+00 9.02e-03 4.77e+02  -6.0 1.70e+01    -  1.00e-01 1.14e-01h  1
  66 -6.0326626e+00 7.73e-03 3.34e+01  -6.0 3.69e+00    -  8.68e-01 1.00e+00h  1
  67 -6.0324215e+00 6.33e-03 3.21e+02  -6.0 2.41e+01    -  5.61e-01 2.50e-01h  3
  68 -6.0322876e+00 5.67e-03 1.04e+03  -6.0 3.16e+01    -  9.26e-01 1.25e-01h  4
  69 -6.0322754e+00 5.58e-03 1.21e+03  -6.0 1.07e+02    -  7.00e-01 1.56e-02h  7
iter    objective    inf_pr   inf_du lg(mu)  ||d||  lg(rg) alpha_du alpha_pr  ls
  70 -6.0322752e+00 5.58e-03 1.03e+03  -6.0 1.65e+03    -  1.82e-01 2.61e-04h  9
  71 -6.0322660e+00 5.50e-03 1.19e+03  -6.0 1.72e+02    -  7.42e-01 1.56e-02h  7
  72 -6.0322650e+00 5.49e-03 9.24e+02  -6.0 2.69e+02    -  9.10e-01 1.63e-03h  9
  73 -6.0322631e+00 5.47e-03 1.18e+03  -6.0 3.06e+02    -  7.89e-01 3.91e-03h  9
  74 -6.0322630e+00 5.47e-03 1.18e+03  -6.0 5.12e+02    -  1.20e-01 2.16e-04h 11
  75 -6.0322619e+00 5.46e-03 1.07e+03  -6.0 3.42e+02    -  9.84e-01 1.95e-03h 10
  76 -6.0322616e+00 5.45e-03 1.18e+03  -6.0 3.47e+02    -  6.11e-01 7.24e-04h 10
  77 -6.0317108e+00 2.13e+00 2.41e+00  -6.0 3.55e+02    -  1.00e+00 1.00e+00w  1
  78 -6.0314270e+00 1.59e-02 1.52e-01  -6.0 2.46e+01  -8.2 1.00e+00 1.00e+00w  1
  79 -6.0313912e+00 1.02e+00 5.24e-01  -6.0 2.43e+02    -  1.00e+00 9.73e-01w  1
iter    objective    inf_pr   inf_du lg(mu)  ||d||  lg(rg) alpha_du alpha_pr  ls
  80 -6.0322595e+00 5.43e-03 1.09e+03  -6.0 2.34e+02    -  1.00e+00 3.91e-03h  8
  81 -6.0322571e+00 5.41e-03 1.17e+03  -6.0 1.61e+02  -8.7 4.34e-01 3.87e-03h  9
  82 -6.0312628e+00 1.06e-03 7.57e+00  -6.0 8.20e+01  -8.2 1.00e+00 1.00e+00H  1
  83 -6.0312657e+00 2.04e-03 3.84e+01  -6.0 6.09e+02    -  1.00e+00 9.94e-03h  6
  84 -6.0312695e+00 2.25e-03 4.94e+01  -6.0 3.49e+02    -  1.00e+00 1.46e-02h  7
  85 -6.0312734e+00 2.44e-03 5.20e+01  -6.0 3.58e+02    -  1.00e+00 1.56e-02h  7
  86 -6.0312753e+00 2.48e-03 5.26e+01  -6.0 3.45e+02    -  1.00e+00 7.81e-03h  8
  87 -6.0312762e+00 2.48e-03 5.26e+01  -6.0 3.46e+02    -  1.00e+00 3.91e-03h  9
  88 -6.0315141e+00 1.98e+00 8.02e-01  -6.0 3.43e+02    -  1.00e+00 1.00e+00h  1
  89 -6.0313544e+00 1.02e+00 6.24e+00  -6.0 2.38e+02    -  1.61e-01 1.00e+00h  1
iter    objective    inf_pr   inf_du lg(mu)  ||d||  lg(rg) alpha_du alpha_pr  ls
  90 -6.0313769e+00 6.05e-01 2.88e-01  -6.0 1.83e+02    -  1.00e+00 1.00e+00h  1
  91 -6.0313700e+00 2.69e-02 1.71e-02  -6.0 3.80e+01    -  1.00e+00 1.00e+00h  1
  92 -6.0313695e+00 2.34e-07 2.87e-07  -6.0 1.19e-01    -  1.00e+00 1.00e+00h  1
  93 -6.0314755e+00 2.55e+00 1.08e+01  -7.5 4.96e+02    -  8.30e-01 7.92e-01h  1
  94 -6.0314704e+00 1.14e+00 3.10e+01  -7.5 5.16e+01    -  1.00e+00 5.61e-01h  1
  95 -6.0314652e+00 3.56e-03 8.50e-02  -7.5 1.39e+01    -  1.00e+00 1.00e+00h  1
  96 -6.0314649e+00 5.53e-05 1.64e-05  -7.5 1.81e+00    -  1.00e+00 1.00e+00h  1
  97 -6.0314649e+00 1.35e-07 5.34e-08  -7.5 8.95e-02    -  1.00e+00 1.00e+00h  1
  98 -6.0314664e+00 5.07e-04 8.87e-01  -9.0 6.64e+00    -  9.22e-01 8.25e-01h  1
  99 -6.0314667e+00 1.37e-05 2.69e-04  -9.0 8.68e-01    -  1.00e+00 1.00e+00h  1
iter    objective    inf_pr   inf_du lg(mu)  ||d||  lg(rg) alpha_du alpha_pr  ls
 100 -6.0314667e+00 4.98e-06 1.98e-06  -9.0 5.43e-01    -  1.00e+00 1.00e+00h  1
 101 -6.0314667e+00 2.00e-08 7.93e-09  -9.0 3.44e-02    -  1.00e+00 1.00e+00h  1
 102 -6.0314667e+00 4.25e-10 2.91e-12  -9.0 1.39e-04    -  1.00e+00 1.00e+00h  1

Number of Iterations....: 102

                                   (scaled)                 (unscaled)
Objective...............:  -4.7120833232513872e+00   -6.0314666537617754e+00
Dual infeasibility......:   2.9118906755768999e-12    3.7272200647384319e-12
Constraint violation....:   4.2549382214211035e-10    4.2549382214211035e-10
Complementarity.........:   9.0912273834963878e-10    1.1636771050875377e-09
Overall NLP error.......:   9.0912273834963878e-10    1.1636771050875377e-09


Number of objective function evaluations             = 287
Number of objective gradient evaluations             = 103
Number of equality constraint evaluations            = 287
Number of inequality constraint evaluations          = 287
Number of equality constraint Jacobian evaluations   = 105
Number of inequality constraint Jacobian evaluations = 105
Number of Lagrangian Hessian evaluations             = 102
Total CPU secs in IPOPT (w/o function evaluations)   =    249.793
Total CPU secs in NLP function evaluations           =      7.542

EXIT: Optimal Solution Found.
